NAME : X-n181-66-k15
COMMENT : "Generated by Queiroga, Frota, Sadykov, Subramanian, Uchoa and Vidal (2019)" 
TYPE : CVRP
DIMENSION : 181
EDGE_WEIGHT_TYPE : EUC_2D
CAPACITY : 8
NODE_COORD_SECTION
1 -1 894 510
2 0 463 887
3 0 704 177
4 0 424 368
5 0 420 800
6 0 492 610
7 0 607 749
8 0 455 819
9 0 343 457
10 0 387 275
11 0 466 653
12 0 607 348
13 0 428 546
14 0 764 848
15 0 403 298
16 0 315 738
17 0 457 902
18 0 597 584
19 0 219 552
20 0 526 359
21 0 414 340
22 0 398 401
23 0 579 780
24 0 518 563
25 0 531 597
26 0 501 827
27 0 687 200
28 0 670 234
29 0 488 981
30 0 673 222
31 0 359 256
32 0 537 675
33 0 788 95
34 0 433 820
35 0 397 770
36 0 444 799
37 0 367 288
38 0 253 774
39 0 570 853
40 0 379 843
41 0 388 736
42 0 565 785
43 0 608 193
44 0 430 657
45 0 775 142
46 0 721 600
47 0 434 876
48 0 683 311
49 0 592 740
50 0 500 315
51 0 428 915
52 0 710 258
53 0 709 272
54 0 426 803
55 0 409 639
56 0 535 572
57 0 502 916
58 0 528 728
59 0 351 371
60 0 657 782
61 0 493 265
62 0 751 112
63 0 469 594
64 0 720 165
65 0 463 624
66 0 751 96
67 0 496 833
68 0 565 459
69 0 471 361
70 0 448 969
71 0 361 559
72 0 529 582
73 0 515 809
74 0 497 434
75 0 429 879
76 0 483 715
77 0 264 574
78 0 793 916
79 0 448 386
80 0 325 199
81 0 327 370
82 0 484 861
83 0 432 873
84 0 412 853
85 0 641 155
86 0 712 163
87 0 456 612
88 0 301 921
89 0 480 400
90 0 700 165
91 0 690 213
92 0 478 811
93 0 665 56
94 0 430 368
95 0 414 943
96 0 709 235
97 0 296 297
98 0 380 773
99 0 459 423
100 0 498 910
101 0 464 939
102 0 677 704
103 0 420 381
104 0 398 872
105 0 554 512
106 0 486 614
107 0 584 809
108 0 429 336
109 0 461 529
110 0 470 360
111 0 494 769
112 0 407 661
113 0 687 711
114 0 454 745
115 0 593 471
116 0 537 648
117 0 666 111
118 0 452 797
119 0 430 742
120 0 481 958
121 1 636 741
122 1 405 576
123 1 666 234
124 1 603 683
125 1 473 466
126 1 378 867
127 1 611 739
128 1 342 688
129 1 446 280
130 1 585 888
131 1 496 418
132 1 711 27
133 1 791 198
134 1 660 828
135 1 414 839
136 1 504 592
137 1 665 921
138 1 448 320
139 1 550 637
140 1 637 758
141 1 743 166
142 1 504 869
143 1 708 432
144 1 664 343
145 1 499 493
146 1 878 706
147 1 396 920
148 1 275 924
149 1 727 669
150 1 728 203
151 1 367 739
152 1 444 808
153 1 755 303
154 1 445 864
155 1 561 848
156 1 597 660
157 1 386 700
158 1 652 240
159 1 344 301
160 1 209 369
161 1 571 812
162 1 454 353
163 1 497 781
164 1 697 220
165 1 296 787
166 1 517 506
167 1 409 893
168 1 339 886
169 1 518 788
170 1 719 99
171 1 607 654
172 1 218 312
173 1 533 847
174 1 523 938
175 1 598 705
176 1 481 772
177 1 461 431
178 1 375 722
179 1 460 681
180 1 524 610
181 1 771 752
DEMAND_SECTION
1 0
2 1
3 1
4 1
5 1
6 1
7 1
8 1
9 1
10 1
11 1
12 1
13 1
14 1
15 1
16 1
17 1
18 1
19 1
20 1
21 1
22 1
23 1
24 1
25 1
26 1
27 1
28 1
29 1
30 1
31 1
32 1
33 1
34 1
35 1
36 1
37 1
38 1
39 1
40 1
41 1
42 1
43 1
44 1
45 1
46 1
47 1
48 1
49 1
50 1
51 1
52 1
53 1
54 1
55 1
56 1
57 1
58 1
59 1
60 1
61 1
62 1
63 1
64 1
65 1
66 1
67 1
68 1
69 1
70 1
71 1
72 1
73 1
74 1
75 1
76 1
77 1
78 1
79 1
80 1
81 1
82 1
83 1
84 1
85 1
86 1
87 1
88 1
89 1
90 1
91 1
92 1
93 1
94 1
95 1
96 1
97 1
98 1
99 1
100 1
101 1
102 1
103 1
104 1
105 1
106 1
107 1
108 1
109 1
110 1
111 1
112 1
113 1
114 1
115 1
116 1
117 1
118 1
119 1
120 1
121 1
122 1
123 1
124 1
125 1
126 1
127 1
128 1
129 1
130 1
131 1
132 1
133 1
134 1
135 1
136 1
137 1
138 1
139 1
140 1
141 1
142 1
143 1
144 1
145 1
146 1
147 1
148 1
149 1
150 1
151 1
152 1
153 1
154 1
155 1
156 1
157 1
158 1
159 1
160 1
161 1
162 1
163 1
164 1
165 1
166 1
167 1
168 1
169 1
170 1
171 1
172 1
173 1
174 1
175 1
176 1
177 1
178 1
179 1
180 1
181 1
DEPOT_SECTION
1
-1
EOF
